c n orig vars 80
p cnf 187 381
127 0
-81 83 0
-81 30 0
81 -83 -30 0
-82 83 0
-82 29 0
82 -83 -29 0
83 -103 0
83 -104 0
83 -58 0
-83 103 104 58 0
84 -90 0
84 -107 0
84 -52 0
-84 90 107 52 0
85 -88 0
85 -33 0
-85 88 33 0
86 -82 0
86 -103 0
86 -35 0
-86 82 103 35 0
87 -86 0
87 -33 0
-87 86 33 0
88 -81 0
88 -104 0
88 -36 0
-88 81 104 36 0
89 -175 0
89 -102 0
89 -28 0
-89 175 102 28 0
-90 174 0
-90 27 0
90 -174 -27 0
-91 162 0
-91 163 0
91 -162 -163 0
-92 145 0
-92 146 0
92 -145 -146 0
93 -99 0
93 -98 0
-93 99 98 0
94 -92 0
94 -91 0
-94 92 91 0
-95 94 0
-95 93 0
95 -94 -93 0
-96 114 0
-96 115 0
96 -114 -115 0
-97 187 0
-97 186 0
97 -187 -186 0
-98 160 0
-98 161 0
98 -160 -161 0
-99 143 0
-99 144 0
99 -143 -144 0
100 -116 0
100 -117 0
100 -107 0
100 -17 0
-100 116 117 107 17 0
101 -105 0
101 -104 0
101 -44 0
-101 105 104 44 0
102 -171 0
102 -172 0
102 -76 0
-102 171 172 76 0
103 -173 0
103 -172 0
103 -75 0
-103 173 172 75 0
104 -177 0
104 -176 0
104 -120 0
104 -121 0
104 -70 0
-104 177 176 120 121 70 0
105 -158 0
105 -156 0
105 -34 0
-105 158 156 34 0
-106 108 0
-106 138 0
106 -108 -138 0
107 -122 0
107 -123 0
107 -124 0
107 -121 0
107 -70 0
-107 122 123 124 121 70 0
-108 141 0
-108 16 0
108 -141 -16 0
-109 139 0
-109 140 0
109 -139 -140 0
-110 101 0
-110 100 0
110 -101 -100 0
111 -109 0
111 -99 0
-111 109 99 0
-112 118 0
-112 119 0
112 -118 -119 0
113 -106 0
113 -92 0
-113 106 92 0
114 -112 0
114 -113 0
-114 112 113 0
115 -110 0
115 -111 0
-115 110 111 0
-116 102 0
-116 107 0
116 -102 -107 0
-117 84 0
-117 89 0
117 -84 -89 0
118 -178 0
118 -103 0
118 -49 0
-118 178 103 49 0
119 -116 0
119 -117 0
119 -102 0
119 -45 0
-119 116 117 102 45 0
-120 26 0
-120 78 0
120 -26 -78 0
-121 32 0
-121 31 0
121 -32 -31 0
-122 26 0
-122 80 0
122 -26 -80 0
-123 25 0
-123 80 0
123 -25 -80 0
-124 126 0
-124 31 0
124 -126 -31 0
125 -25 0
125 -80 0
125 -26 0
-125 25 80 26 0
126 -63 0
126 -78 0
126 -26 0
-126 63 78 26 0
127 -97 0
127 -96 0
127 -95 0
-127 97 96 95 0
128 -136 0
128 -56 0
128 -55 0
-128 136 56 55 0
-129 133 0
-129 60 0
129 -133 -60 0
130 -105 0
130 -59 0
-130 105 59 0
131 -116 0
131 -117 0
131 -8 0
-131 116 117 8 0
132 -103 0
132 -57 0
132 -43 0
-132 103 57 43 0
133 -137 0
133 -62 0
133 -55 0
-133 137 62 55 0
134 -102 0
134 -66 0
134 -43 0
-134 102 66 43 0
-135 132 0
-135 61 0
135 -132 -61 0
136 -107 0
136 -80 0
136 -69 0
-136 107 80 69 0
137 -104 0
137 -78 0
137 -79 0
-137 104 78 79 0
138 -116 0
138 -117 0
138 -18 0
138 -20 0
-138 116 117 18 20 0
-139 142 0
-139 19 0
139 -142 -19 0
140 -116 0
140 -117 0
140 -23 0
140 -9 0
-140 116 117 23 9 0
141 -178 0
141 -18 0
141 -21 0
-141 178 18 21 0
142 -105 0
142 -23 0
142 -22 0
-142 105 23 22 0
143 -147 0
143 -146 0
-143 147 146 0
-144 129 0
-144 128 0
144 -129 -128 0
145 -147 0
145 -144 0
-145 147 144 0
-146 135 0
-146 134 0
146 -135 -134 0
-147 131 0
-147 130 0
147 -131 -130 0
-148 150 0
-148 48 0
148 -150 -48 0
149 -148 0
149 -104 0
149 -2 0
-149 148 104 2 0
150 -103 0
150 -104 0
150 -6 0
150 -64 0
150 -41 0
-150 103 104 6 64 41 0
-151 150 0
-151 54 0
151 -150 -54 0
152 -149 0
152 -39 0
-152 149 39 0
-153 154 0
-153 149 0
153 -154 -149 0
154 -155 0
154 -39 0
-154 155 39 0
155 -151 0
155 -103 0
155 -65 0
-155 151 103 65 0
-156 87 0
-156 88 0
156 -87 -88 0
-157 85 0
-157 86 0
157 -85 -86 0
-158 103 0
-158 104 0
158 -103 -104 0
-159 152 0
-159 155 0
159 -152 -155 0
-160 167 0
-160 15 0
160 -167 -15 0
161 -116 0
161 -117 0
161 -37 0
161 -10 0
-161 116 117 37 10 0
-162 166 0
-162 67 0
162 -166 -67 0
163 -116 0
163 -117 0
163 -12 0
163 -13 0
-163 116 117 12 13 0
164 -158 0
164 -159 0
164 -3 0
-164 158 159 3 0
165 -158 0
165 -153 0
165 -24 0
-165 158 153 24 0
166 -178 0
166 -14 0
166 -13 0
-166 178 14 13 0
167 -178 0
167 -11 0
167 -10 0
-167 178 11 10 0
168 -46 0
168 -42 0
168 -7 0
-168 46 42 7 0
169 -40 0
169 -72 0
169 -51 0
-169 40 72 51 0
170 -71 0
170 -68 0
170 -7 0
-170 71 68 7 0
-171 168 0
-171 77 0
171 -168 -77 0
-172 169 0
-172 77 0
172 -169 -77 0
-173 170 0
-173 169 0
173 -170 -169 0
174 -102 0
174 -107 0
174 -74 0
-174 102 107 74 0
-175 174 0
-175 73 0
175 -174 -73 0
-176 63 0
-176 78 0
176 -63 -78 0
-177 125 0
-177 32 0
177 -125 -32 0
178 -158 0
178 -157 0
178 -1 0
-178 158 157 1 0
179 -116 0
179 -117 0
179 -50 0
-179 116 117 50 0
180 -178 0
180 -47 0
-180 178 47 0
-181 180 0
-181 179 0
181 -180 -179 0
182 -165 0
182 -4 0
182 -41 0
-182 165 4 41 0
-183 181 0
-183 5 0
183 -181 -5 0
184 -164 0
184 -38 0
184 -6 0
-184 164 38 6 0
-185 181 0
-185 53 0
185 -181 -53 0
186 -183 0
186 -182 0
186 -40 0
-186 183 182 40 0
187 -185 0
187 -184 0
187 -51 0
-187 185 184 51 0
